
--- Job TSP.gms Start 03/13/22 20:38:19 38.1.0 a1a3b545 DEX-DEG x86 64bit/Mac OS X
--- Applying:
    /Library/Frameworks/GAMS.framework/Versions/38/Resources/gmsprmun.txt
--- GAMS Parameters defined
    Input /Users/kmontocam/Downloads/TSP.gms
    PageSize 0
    ScrDir /Users/kmontocam/Downloads/225a/
    SysDir /Library/Frameworks/GAMS.framework/Versions/38/Resources/
    LogOption 3
    ErrMsg 1
    ErrorLog 99
    IDE 1
    LstTitleLeftAligned 1
Licensee: GAMS Demo license for Kevin Montoya            G220217|0002CO-GEN
          Tec de Monterrey, Mexico                                 DL060690
          /Users/kmontocam/Library/Application Support/GAMS/gamslice.txt
          a01740352@itesm.mx, Kevin Montoya                                
          Demo license for demonstration and instructional purposes only
Processor information: 1 socket(s), 8 core(s), and 8 thread(s) available
GAMS 38.1.0   Copyright (C) 1987-2022 GAMS Development. All rights reserved
--- Starting compilation
--- TSP.gms(60) 3 Mb
--- Starting execution: elapsed 0:00:00.010
--- TSP.gms(1) 4 Mb
--- Generating MIP model TSP
--- TSP.gms(60) 4 Mb
---   603 rows  650 columns  3,532 non-zeroes
---   625 discrete-columns
--- Executing CPLEX (Solvelink=2): elapsed 0:00:00.028

IBM ILOG CPLEX   38.1.0 a1a3b545 Jan 31, 2022          DEG x86 64bit/Mac OS X 

--- *** This solver runs with a demo license. No commercial use.
--- GMO setup time: 0.00s
--- Space for names approximately 0.02 Mb
--- Use option 'names no' to turn use of names off
--- GMO memory 0.64 Mb (peak 0.65 Mb)
--- Dictionary memory 0.00 Mb
--- Cplex 20.1.0.1 link memory 0.02 Mb (peak 0.09 Mb)
--- Starting Cplex

Version identifier: 20.1.0.1 | 2021-04-07 | 3a818710c
CPXPARAM_Advance                                 0
CPXPARAM_Threads                                 1
CPXPARAM_MIP_Display                             4
CPXPARAM_MIP_Pool_Capacity                       0
CPXPARAM_MIP_Tolerances_AbsMIPGap                0
CPXPARAM_MIP_Tolerances_MIPGap                   1.0000000000000001e-05
Generic callback                                 0x50
Found incumbent of value 2.4999975e+07 after 0.00 sec. (0.05 ticks)
Tried aggregator 1 time.
MIP Presolve eliminated 0 rows and 1 columns.
Reduced MIP has 602 rows, 649 columns, and 2906 nonzeros.
Reduced MIP has 625 binaries, 0 generals, 0 SOSs, and 0 indicators.
Presolve time = 0.01 sec. (1.57 ticks)
Probing time = 0.00 sec. (2.04 ticks)
Tried aggregator 1 time.
Detecting symmetries...
Reduced MIP has 602 rows, 649 columns, and 2906 nonzeros.
Reduced MIP has 625 binaries, 0 generals, 0 SOSs, and 0 indicators.
Presolve time = 0.01 sec. (2.01 ticks)
Probing time = 0.00 sec. (2.07 ticks)
Clique table members: 326.
MIP emphasis: balance optimality and feasibility.
MIP search method: dynamic search.
Parallel mode: none, using 1 thread.
Tried aggregator 1 time.
No LP presolve or aggregator reductions.
Presolve time = 0.00 sec. (0.30 ticks)
Initializing dual steep norms . . .

Iteration log . . .
Iteration:     1   Dual objective     =           101.579525
Root relaxation solution time = 0.01 sec. (1.10 ticks)

        Nodes                                         Cuts/
   Node  Left     Objective  IInf  Best Integer    Best Bound    ItCnt     Gap

*     0+    0                       2.50000e+07        0.0000           100.00%
Found incumbent of value 2.4999975e+07 after 0.03 sec. (10.67 ticks)
      0     0      145.1028    34   2.50000e+07      145.1028       48  100.00%
      0     0      177.5230    36   2.50000e+07      Cuts: 20       70  100.00%
      0     0      177.7992    44   2.50000e+07       Cuts: 8       89  100.00%
      0     0      178.3988    57   2.50000e+07       Cuts: 3      116  100.00%
      0     0      178.6719    50   2.50000e+07       Cuts: 5      148  100.00%
      0     0      178.8039    49   2.50000e+07   ZeroHalf: 2      162  100.00%
Detecting symmetries...
      0     0      178.9752    49   2.50000e+07       Cuts: 6      167  100.00%
      0     0      179.4536    55   2.50000e+07       Cuts: 3      182  100.00%
*     0+    0                       1.40000e+07      179.4536           100.00%
Found incumbent of value 1.4000021e+07 after 0.16 sec. (195.03 ticks)
      0     0  -1.00000e+75     0   1.40000e+07      179.4536      182  100.00%
Detecting symmetries...
      0     2      179.4536    55   1.40000e+07      179.4660      182  100.00%
Elapsed time = 0.18 sec. (214.98 ticks, tree = 0.01 MB)
*    20+   18                          197.1475      179.9857             8.71%
Found incumbent of value 197.147458 after 0.18 sec. (224.83 ticks)
*    40    23      integral     0      192.9854      180.0699      523    6.69%
                                                    Covers: 3                  
Found incumbent of value 192.985353 after 0.19 sec. (235.00 ticks)
*    78    41      integral     0      192.2517      186.9678      947    2.75%
                                                      Cuts: 4                  
Found incumbent of value 192.251673 after 0.20 sec. (256.32 ticks)
*   114    47      integral     0      191.0090      187.3018     1206    1.94%
                                                    Covers: 1                  
Found incumbent of value 191.009003 after 0.21 sec. (273.06 ticks)
*   181    50      integral     0      190.9631      188.4072     1873    1.34%
                                                    Covers: 1                  
Found incumbent of value 190.963147 after 0.23 sec. (303.30 ticks)
*   185    47      integral     0      190.8118      188.4310     1951    1.25%
Found incumbent of value 190.811826 after 0.23 sec. (305.80 ticks)

Clique cuts applied:  9
Cover cuts applied:  11
Mixed integer rounding cuts applied:  9
Zero-half cuts applied:  7
Lift and project cuts applied:  1

Root node processing (before b&c):
  Real time             =    0.18 sec. (214.97 ticks)
Sequential b&c:
  Real time             =    0.09 sec. (154.94 ticks)
                          ------------
Total (root+branch&cut) =    0.27 sec. (369.91 ticks)

--- MIP status (101): integer optimal solution.
--- Cplex Time: 0.27sec (det. 369.92 ticks)

--- Fixing integer variables and solving final LP...

Version identifier: 20.1.0.1 | 2021-04-07 | 3a818710c
CPXPARAM_Advance                                 2
CPXPARAM_Threads                                 1
CPXPARAM_MIP_Display                             4
CPXPARAM_MIP_Pool_Capacity                       0
CPXPARAM_MIP_Tolerances_AbsMIPGap                0
CPXPARAM_MIP_Tolerances_MIPGap                   1.0000000000000001e-05
Tried aggregator 1 time.
LP Presolve eliminated 50 rows and 626 columns.
Reduced LP has 552 rows, 24 columns, and 1104 nonzeros.
Presolve time = 0.00 sec. (0.61 ticks)

Iteration log . . .
Iteration:     1   Dual objective     =           190.811826

--- Fixed MIP status (1): optimal.
--- Cplex Time: 0.00sec (det. 1.43 ticks)


Proven optimal solution
MIP Solution:          190.811826    (3383 iterations, 357 nodes)
Final Solve:           190.811826    (23 iterations)

Best possible:         190.811826
Absolute gap:            0.000000
Relative gap:            0.000000

--- Reading solution for model TSP
*** Status: Normal completion
--- Job TSP.gms Stop 03/13/22 20:38:19 elapsed 0:00:00.379
